submitit INFO (2023-05-02 18:51:13,353) - Starting with JobEnvironment(job_id=27737, hostname=cpunode3, local_rank=4(5), node=0(1), global_rank=4(5))
submitit INFO (2023-05-02 18:51:13,353) - Loading pickle: /h/30/pashootan/Matrix-Mult-CP/src/../logs/4/1x2x1_2_May02_18:51:12/27737_submitted.pkl
 ! --------------------------------------------------- CP Optimizer 22.1.1.0 --
 ! Satisfiability problem - 10 variables, 4 constraints
 ! TimeLimit            = 7200
 ! Workers              = 8
 ! LogPeriod            = 10000000
 ! RandomSeed           = 6891
 ! Initial process time : 0.00s (0.00s extraction + 0.00s propagation)
 !  . Log search space  : 15.8 (before), 15.8 (after)
 !  . Memory usage      : 267.3 kB (before), 267.3 kB (after)
 ! Using parallel search with 8 workers.
 ! ----------------------------------------------------------------------------
 !               Branches  Non-fixed    W       Branch decision
 *                     17  0.02s        1         1  = U0_1
 ! ----------------------------------------------------------------------------
 ! Search completed, 1 solution found.
 ! ----------------------------------------------------------------------------
 ! Number of branches     : 165
 ! Number of fails        : 53
 ! Total memory usage     : 4.1 MB (4.0 MB CP Optimizer + 0.0 MB Concert)
 ! Time spent in solve    : 0.02s (0.02s engine + 0.00s extraction)
 ! Search speed (br. / s) : 16500.0
 ! ----------------------------------------------------------------------------
Feasible
Model is valid
Saving solution to: /h/30/pashootan/Matrix-Mult-CP/logs/4/1x2x1_2_May02_18:51:12/27737_4_solution.txt
Saving stats to: /h/30/pashootan/Matrix-Mult-CP/logs/4/1x2x1_2_May02_18:51:12/27737_4_stats.csv
submitit INFO (2023-05-02 18:51:13,877) - Job completed successfully
